=obj=                31.870398370875
C0001                0
C0002                0
C0003                0
C0004                0
C0005                0
C0006                0
C0007                0
C0008                0
C0009                0
C0010                0
C0011                0
C0012                0
C0013                0
C0014                0
C0015                0
C0016                0
C0017                0
C0018                0
C0019                0
C0020                0
C0021                0
C0022                0
C0023                0
C0024                0
C0025                0
C0026                0
C0027                0
C0028                0
C0029                0
C0030                0
C0031                0
C0032                0
C0033                0
C0034                0
C0035                0
C0036                0
C0037                0
C0038                0
C0039                0
C0040                0
C0041                0
C0042                0
C0043                0
C0044                0
C0045                0
C0046                0
C0047                0
C0048                0
C0049                0
C0050                0
C0051                0
C0052                0
C0053                0
C0054                0
C0055                0
C0056                0
C0057                0
C0058                0
C0059                0
C0060                0
C0061                0
C0062                0
C0063                0
C0064                0
C0065                0
C0066                0
C0067                0
C0068                0
C0069                0
C0070                0
C0071                0
C0072                0
C0073                0
C0074                0
C0075                0
C0076                0
C0077                0
C0078                0
C0079                0
C0080                0
C0081                0
C0082                0
C0083                0
C0084                0
C0085                0
C0086                0
C0087                0
C0088                0
C0089                0
C0090                0
C0091                0
C0092                7.99402975560828
C0093                148.460305185504
C0094                0
C0095                0
C0096                0
C0097                0
C0098                0
C0099                0
C0100                0
C0101                0
C0102                0
C0103                0
C0104                0
C0105                0
C0106                0
C0107                0
C0108                0
C0109                0
C0110                0
C0111                0
C0112                0
C0113                0
C0114                0
C0115                93.7070759647962
C0116                0.183515745363668
C0117                0
C0118                0
C0119                0
C0120                0
C0121                0
C0122                0
C0123                0
C0124                0
C0125                0
C0126                0
C0127                0
C0128                0
C0129                0
C0130                0
C0131                0
C0132                0
C0133                0
C0134                0
C0135                0
C0136                0
C0137                0
C0138                0
C0139                0
C0140                0
C0141                0
C0142                0
C0143                0
C0144                0
C0145                0
C0146                0
C0147                0
C0148                0
C0149                0
C0150                0
C0151                0
C0152                0
C0153                0
C0154                0
C0155                0
C0156                0
C0157                0
C0158                0
C0159                0
C0160                0
C0161                0
C0162                0
C0163                0
C0164                0
C0165                0
C0166                0
C0167                0
C0168                0
C0169                0
C0170                0
C0171                0
C0172                0
C0173                0
C0174                0
C0175                0
C0176                0
C0177                0
C0178                0
C0179                0
C0180                0
C0181                0
C0182                0
C0183                0
C0184                0
C0185                0
C0186                0
C0187                0
C0188                0
C0189                0
C0190                0
C0191                0
C0192                0
C0193                0
C0194                0
C0195                0
C0196                0
C0197                0
C0198                0
C0199                0
C0200                0
C0201                0
C0202                0
C0203                0
C0204                0
C0205                0
C0206                0
C0207                0
C0208                0
C0209                0
C0210                0
C0211                74.6589508474098
C0212                0
C0213                0
C0214                4.83211361683507
C0215                8.88977433818893
C0216                0
C0217                0
C0218                0
C0219                0
C0220                0
C0221                0
C0222                0
C0223                0
C0224                0
C0225                0
C0226                0
C0227                0
C0228                0
C0229                0
C0230                0
C0231                0
C0232                0
C0233                0
C0234                0
C0235                0
C0236                0
C0237                0
C0238                0
C0239                0
C0240                0
C0241                0
C0242                0
C0243                0
C0244                0
C0245                0
C0246                0
C0247                0
C0248                0
C0249                0
C0250                0
C0251                0
C0252                0
C0253                0
C0254                0
C0255                0
C0256                0
C0257                0
C0258                0
C0259                0
C0260                0
C0261                0
C0262                0
C0263                0
C0264                0
C0265                0
C0266                0
C0267                0
C0268                0
C0269                0
C0270                0
C0271                0
C0272                0
C0273                0
C0274                0
C0275                0
C0276                0
C0277                0
C0278                0
C0279                0
C0280                0
C0281                0
C0282                0
C0283                0
C0284                0
C0285                0
C0286                0
C0287                0
C0288                0
C0289                0
C0290                0
C0291                0
C0292                0
C0293                0
C0294                0
C0295                0
C0296                0
C0297                0
C0298                0
C0299                0
C0300                0
C0301                0
C0302                0
C0303                0
C0304                0
C0305                0
C0306                0
C0307                0
C0308                0
C0309                0
C0310                0
C0311                0
C0312                0
C0313                0
C0314                0
C0315                0
C0316                0
C0317                0
C0318                0
C0319                0
C0320                0
C0321                0
C0322                0
C0323                0
C0324                0
C0325                0
C0326                0
C0327                0
C0328                0
C0329                0
C0330                0
C0331                0
C0332                0
C0333                0
C0334                0
C0335                0
C0336                0
C0337                0
C0338                0
C0339                0
C0340                0
C0341                0
C0342                0
C0343                0
C0344                0
C0345                0
C0346                0
C0347                0
C0348                0
C0349                0
C0350                0
C0351                0
C0352                0
C0353                0
C0354                0
C0355                0
C0356                0
C0357                0
C0358                0
C0359                0
C0360                0
C0361                0
C0362                0
C0363                0
C0364                0
C0365                0
C0366                0
C0367                0
C0368                0
C0369                0
C0370                0
C0371                0
C0372                0
C0373                0
C0374                0
C0375                0
C0376                0
C0377                0
C0378                0
C0379                0
C0380                0
C0381                0
C0382                0
C0383                0
C0384                0
C0385                0
C0386                0
C0387                0
C0388                0
C0389                0
C0390                0
C0391                0
C0392                0
C0393                0
C0394                0
C0395                0
C0396                0
C0397                0
C0398                0
C0399                0
C0400                0
C0401                0
C0402                0
C0403                0
C0404                0
C0405                0
C0406                0
C0407                0
C0408                0
C0409                0
C0410                0
C0411                0
C0412                0
C0413                0
C0414                0
C0415                0
C0416                0
C0417                0
C0418                0
C0419                0
C0420                0
C0421                0
C0422                0
C0423                0
C0424                0
C0425                0
C0426                0
C0427                0
C0428                0
C0429                0
C0430                0
C0431                0
C0432                0
C0433                0
C0434                0
C0435                0
C0436                0
C0437                0
C0438                0
C0439                0
C0440                0
C0441                0
C0442                0
C0443                0
C0444                0
C0445                0
C0446                0
C0447                0
C0448                0
C0449                0
C0450                0
C0451                0
C0452                0
C0453                0
C0454                0
C0455                0
C0456                0
C0457                0
C0458                0
C0459                0
C0460                0
C0461                0
C0462                0
C0463                0
C0464                0
C0465                0
C0466                0
C0467                0
C0468                0
C0469                0
C0470                0
C0471                0
C0472                0
C0473                0
C0474                0
C0475                0
C0476                0
C0477                0
C0478                0
C0479                0
C0480                0
C0481                0
C0482                0
C0483                0
C0484                0
C0485                0
C0486                0
C0487                0
C0488                0
C0489                0
C0490                0
C0491                0
C0492                0
C0493                0
C0494                0
C0495                0
C0496                4.39054582143442
C0497                8.743669356647301
C0498                4.03506018100542
C0499                -2.13885429468416
C0500                -12.004671093617
C0501                -16.582291262555
C0502                -20
C0503                -16.9016142159492
C0504                -13.7864879985975
C0505                -17.3394220342337
C0506                8.05788096837829
C0507                23.523380468399
C0508                14.6026336536427
C0509                1.57830728388023
C0510                -4.66015147491894
C0511                -13.5665596614575
C0512                -9.970400917068339
C0513                7.61301224811299
C0514                20.347422641456
C0515                3.7843395130613
C0516                -8.178673081695679
C0517                4.29476756629453
C0518                3.18231130814823
C0519                16.8034682907829
C0520                27.3267211512217
C0521                13.2598250288627
C0522                5.16891983221511
C0523                5.87440119845939
C0524                7.57820278204159
C0525                2.94195372427358
C0526                4.30598430629922
C0527                12.5475406007621
C0528                25.2595349877214
C0529                20.3397372833821
C0530                0
C0531                -12.9083923288903
C0532                -8.252942836525589
C0533                6.56027286720213
C0534                5.14476760834475
C0535                0
C0536                7.39108654207465
C0537                12.3677923061133
C0538                11.3941409196465
C0539                15.8474408297453
C0540                28.6106372181644
C0541                28.9832563035447
C0542                24.987290322105
C0543                11.7984449374018
C0544                1.84081420212503
C0545                7.68085790451628
C0546                23.4700338859663
C0547                28.0765277202451
C0548                13.3059277864093
C0549                7.42045460623996
C0550                2.00961658958446
C0551                1.47872617329643
C0552                0.597123256889056
C0553                0.06377114659306039
C0554                5.99153016798007
C0555                23.2939215504961
C0556                29.5541224387933
C0557                26.8230683115961
C0558                8.59350250233144
C0559                2.31224916184767
C0560                2.23118497299826
C0561                4.02027300958567
C0562                2.80980622720699
C0563                2.57527301440183
C0564                0
C0565                0.503984803509452
C0566                15.1450814340148
C0567                23.5536486078528
C0568                7.07067703480239
C0569                8.13126241822069
C0570                5.06707652963848
C0571                6.698491942806
C0572                5.73991111455106
C0573                6.07876394385423
C0574                -2.78787029351752
C0575                7.75860065098075
C0576                6.18282667574588
C0577                3.29710566867716
C0578                14.3976435920885
C0579                11.4171075071036
C0580                9.465184384541329
C0581                12.0580284591969
C0582                8.246934961311769
C0583                4.6719406243925
C0584                1.43828444034563
C0585                5.7607611117642
C0586                16.1999720504212
C0587                18.3617672558521
C0588                14.9601882290217
C0589                20.6352085031301
C0590                18.7619954723457
C0591                15.2357991308267
C0592                12.413802640772
C0593                9.84594317569044
C0594                0.545216455009285
C0595                0.485679135886031
C0596                2.44605137291692
C0597                -6.69784183160638
C0598                -5.96834891433024
C0599                19.2723365629455
C0600                32.3932906950456
C0601                32.4094175567399
C0602                19.2796774392786
C0603                17.3661600182562
C0604                13.7437948033393
C0605                17.3815674908254
C0606                13.453262868985
C0607                6.93275078101566
C0608                -6.66393019830355
C0609                -5.5760554856338
C0610                -6.25161022360903
C0611                5.87896226052346
C0612                32.6088710540489
C0613                45.0763157550545
C0614                38.5501005984666
C0615                6.45670470276457
C0616                24.2272210125273
C0617                0
C0618                -12.1486950959947
C0619                -15.9721216422685
C0620                -10.4020271380975
C0621                -7.58803542429092
C0622                0
C0623                24.5807023913916
C0624                38.4799658139781
C0625                39.60410118473
C0626                12.7671676936965
C0627                -3.36056607224631
C0628                12.4714833993957
C0629                12.4907031994476
C0630                -5.84797760221774
C0631                -18.9376053868612
C0632                -18.8430048340835
C0633                -13.7493671570535
C0634                13.5450720408636
C0635                22.8418287124445
C0636                21.3472733327426
C0637                13.9124332704045
C0638                12.3454430477582
C0639                12.1650093968449
C0640                5.70666783204031
C0641                16.6120153076836
C0642                18.4178627848762
C0643                19.4100701711085
C0644                19.613590066988
C0645                12.2973113944606
C0646                18.2594049427093
C0647                16.8615176393917
C0648                13.0442037891486
C0649                -19.9493800623938
C0650                -19.336656938662
C0651                -9.85732131682764
C0652                0
C0653                10.6750523059729
C0654                28.1951734263579
C0655                18.1305289339286
C0656                43.73245411824
C0657                43.7202987837735
C0658                42.2548548773237
C0659                33.2496621206383
C0660                20.3159585088391
C0661                32.7718035455121
C0662                34.4393173463398
C0663                39.5912579410289
C0664                39.093544336323
C0665                56.030447854678
C0666                55.0461839287367
C0667                26.4629953493602
C0668                58.6266342113411
C0669                42.0131036533866
C0670                22.8882558052238
C0671                30.7057141705016
C0672                23.5458003143254
C0673                45.5529366803323
C0674                44.9500655865222
C0675                46.6823707185623
C0676                39.3208754322726
C0677                63.1529834334067
C0678                51.7246321441816
C0679                56.5495265430719
C0680                42.0314068281361
C0681                70.4424113556226
C0682                29.3681334641458
C0683                47.672074970854
C0684                38.1118300293827
C0685                52.6514507709923
C0686                52.450680456741
C0687                40.5417407934434
C0688                46.8636538932056
C0689                57.8762947503226
C0690                57.188178501482
C0691                66.2041483669736
C0692                39.8889405159548
C0693                47.6394535012313
C0694                24.1293649136855
C0695                26.9394540391684
C0696                18.7584256589149
C0697                51.4857538086524
C0698                84.3669889596672
C0699                26.3081433516837
C0700                77.13900413927649
C0701                35.8252921563406
C0702                22.632148457414
C0703                56.4059036273286
C0704                84.000780228892
C0705                43.0696647132451
C0706                35.1305881992703
C0707                54.8326012047837
C0708                55.0000640403564
C0709                52.8736742339837
C0710                59.2402333374916
C0711                40.1171665026349
C0712                44.5819065468616
C0713                44.3948615539929
C0714                23.4000098368775
C0715                75.8935880311474
C0716                17.6223851187685
C0717                63.6984606633122
C0718                66.2362958980369
C0719                20.0072369900142
C0720                62.3193398758327
C0721                33.9781902773313
C0722                73.13449518999739
C0723                56.4033311114257
C0724                55.6030357781627
C0725                54.3502559469763
C0726                41.1641557058689
C0727                36.7036981174809
C0728                31.0117996648515
C0729                31.8163116353499
C0730                45.0028164769757
C0731                36.7318035367564
C0732                34.9516427567679
C0733                24.4284988573172
C0734                44.7978341915171
C0735                39.5968173667695
C0736                39.5530364704228
C0737                26.3045102008595
C0738                37.4121633894487
C0739                56.7456092389929
C0740                48.4513594712555
C0741                58.858986744766
C0742                31.9436182646598
C0743                39.8034839975265
C0744                40.9128952752577
C0745                29.3752876895912
C0746                41.9414786828303
C0747                16.1093951665297
C0748                51.191765194986
C0749                14.9763543580729
C0750                54.1002248375118
C0751                65.777301368374
C0752                16.4420662846976
C0753                57.4096562568434
C0754                71.1861188868201
C0755                19.9567747215982
C0756                54.1160281816958
C0757                62.0543455042248
C0758                0
C0759                0
C0760                0
C0761                1
C0762                1
C0763                1
C0764                1
C0765                1
C0766                1
C0767                1
C0768                0
C0769                0
C0770                0
C0771                0
C0772                1
C0773                1
C0774                1
C0775                0
C0776                0
C0777                0
C0778                1
C0779                0
C0780                0
C0781                0
C0782                0
C0783                0
C0784                0
C0785                0
C0786                0
C0787                0
C0788                0
C0789                0
C0790                0
C0791                0
C0792                0
C0793                1
C0794                1
C0795                0
C0796                0
C0797                0
C0798                0
C0799                0
C0800                0
C0801                0
C0802                0
C0803                0
C0804                0
C0805                0
C0806                0
C0807                0
C0808                0
C0809                0
C0810                0
C0811                0
C0812                0
C0813                0
C0814                0
C0815                0
C0816                0
C0817                0
C0818                0
C0819                0
C0820                0
C0821                0
C0822                0
C0823                0
C0824                0
C0825                0
C0826                0
C0827                0
C0828                0
C0829                0
C0830                0
C0831                0
C0832                0
C0833                0
C0834                0
C0835                0
C0836                1
C0837                0
C0838                0
C0839                0
C0840                0
C0841                0
C0842                0
C0843                0
C0844                0
C0845                0
C0846                0
C0847                0
C0848                0
C0849                0
C0850                0
C0851                0
C0852                0
C0853                0
C0854                0
C0855                0
C0856                0
C0857                0
C0858                0
C0859                1
C0860                1
C0861                0
C0862                0
C0863                0
C0864                0
C0865                0
C0866                0
C0867                0
C0868                0
C0869                0
C0870                1
C0871                1
C0872                1
C0873                0
C0874                0
C0875                0
C0876                0
C0877                0
C0878                0
C0879                0
C0880                1
C0881                1
C0882                1
C0883                1
C0884                0
C0885                0
C0886                0
C0887                0
C0888                0
C0889                1
C0890                0
C0891                0
C0892                1
C0893                1
C0894                1
C0895                1
C0896                0
C0897                0
C0898                0
C0899                0
C0900                0
C0901                0
C0902                0
C0903                0
C0904                0
C0905                0
C0906                0
C0907                0
C0908                0
C0909                0
C0910                0
C0911                1
C0912                1
C0913                1
C0914                0
C0915                0
C0916                0
C0917                0
C0918                0
C0919                0
C0920                0
C0921                0
C0922                0
C0923                0
C0924                0
C0925                0
C0926                1
C0927                0
C0928                1
C0929                0
C0930                0
C0931                0
C0932                0
C0933                0
C0934                0
C0935                0
C0936                0
C0937                0
C0938                0
C0939                1
C0940                0
C0941                0
C0942                0
C0943                0
C0944                0
C0945                0
C0946                0
C0947                0
C0948                0
C0949                0
C0950                0
C0951                0
C0952                0
C0953                0
C0954                0
C0955                0
C0956                0
C0957                0
C0958                0
C0959                0
C0960                0
C0961                0
C0962                0
C0963                0
C0964                0
C0965                0
C0966                0
C0967                0
C0968                0
C0969                0
C0970                0
C0971                1
C0972                1
C0973                1
C0974                1
C0975                1
C0976                1
C0977                1
C0978                1
C0979                1
C0980                0
C0981                0
C0982                0
C0983                0
C0984                0
C0985                0
C0986                0
C0987                0
C0988                0
C0989                0
C0990                0
C0991                0
C0992                0
C0993                0
C0994                0
C0995                0
C0996                0
C0997                0
C0998                0
C0999                0
C1000                0
C1001                0
C1002                0
C1003                0
C1004                0
C1005                0
C1006                0
C1007                0
C1008                0
C1009                0
C1010                0
C1011                0
C1012                0
C1013                0
C1014                0
C1015                0
C1016                0
C1017                0
C1018                0
C1019                0
C1020                0
C1021                0
C1022                0
C1023                0
C1024                0
C1025                0
C1026                0
C1027                0
C1028                0
C1029                0
C1030                0
C1031                0
C1032                0
C1033                0
C1034                0
C1035                0
C1036                0
C1037                0
C1038                0
C1039                0
C1040                0
C1041                0
C1042                0
C1043                0
C1044                0
C1045                0
C1046                0
C1047                0
C1048                0
C1049                0
C1050                0
C1051                0
C1052                0
C1053                0
C1054                0
C1055                0
C1056                0
C1057                0
C1058                0
C1059                0
C1060                0
C1061                0
C1062                0
C1063                0
C1064                0
C1065                0
C1066                0
C1067                0
C1068                0
C1069                0
C1070                0
C1071                1
C1072                1
C1073                0
C1074                0
C1075                0
C1076                0
C1077                0
C1078                0
C1079                0
C1080                0
C1081                0
C1082                0
C1083                0
C1084                0
C1085                0
C1086                0
C1087                0
C1088                0
C1089                0
C1090                0
C1091                0
C1092                0
C1093                0
C1094                1
C1095                1
C1096                0
C1097                0
C1098                0
C1099                0
C1100                0
C1101                0
C1102                0
C1103                0
C1104                0
C1105                0
C1106                0
C1107                0
C1108                0
C1109                0
C1110                0
C1111                0
C1112                0
C1113                0
C1114                0
C1115                0
C1116                0
C1117                0
C1118                0
C1119                0
C1120                0
C1121                0
C1122                0
C1123                0
C1124                0
C1125                0
C1126                0
C1127                0
C1128                0
C1129                0
C1130                0
C1131                0
C1132                0
C1133                0
C1134                0
C1135                0
C1136                0
C1137                0
C1138                0
C1139                0
C1140                0
C1141                0
C1142                1
C1143                0
C1144                0
C1145                0
C1146                0
C1147                0
C1148                0
C1149                0
C1150                0
C1151                0
C1152                0
C1153                0
C1154                0
C1155                0
C1156                0
C1157                0
C1158                0
C1159                0
C1160                0
C1161                0
C1162                0
C1163                0
C1164                0
C1165                0
C1166                0
C1167                0
C1168                0
C1169                1
C1170                0
C1171                0
C1172                0
C1173                0
C1174                0
C1175                0
C1176                0
C1177                0
C1178                0
C1179                0
C1180                0
C1181                0
C1182                0
C1183                0
C1184                0
C1185                0
C1186                0
C1187                0
C1188                0
C1189                0
C1190                1
C1191                0
C1192                0
C1193                1
C1194                1
C1195                0
C1196                0
C1197                0
C1198                0
C1199                0
C1200                0
C1201                0
C1202                0
C1203                0
C1204                0
C1205                0
C1206                0
C1207                0
C1208                0
C1209                0
C1210                0
C1211                0
C1212                0
C1213                0
C1214                0
C1215                0
C1216                0
C1217                0
C1218                0
C1219                0
C1220                0
C1221                0
C1222                0
C1223                0
C1224                0
C1225                0
C1226                0
C1227                0
C1228                0
C1229                0
C1230                0
C1231                0
C1232                0
C1233                0
C1234                0
C1235                0
C1236                0
C1237                0
C1238                0
C1239                0
C1240                0
C1241                0
C1242                0
C1243                0
C1244                0
C1245                0
C1246                0
C1247                0
C1248                0
C1249                0
C1250                0
C1251                0
C1252                0
C1253                0
C1254                0
C1255                0
C1256                0
C1257                0
C1258                0
C1259                0
C1260                0
C1261                0
C1262                0
C1263                0
C1264                0
C1265                0
C1266                0
C1267                0
C1268                0
C1269                0
C1270                0
C1271                0
C1272                0
C1273                0
C1274                0
C1275                0
C1276                0
C1277                0
C1278                0
C1279                0
C1280                0
C1281                0
C1282                0
C1283                0
C1284                0
C1285                0
C1286                0
C1287                0
C1288                0
C1289                0
C1290                0
C1291                0
C1292                0
C1293                0
C1294                0
C1295                0
C1296                0
C1297                0
C1298                0
C1299                0
C1300                0
C1301                0
C1302                0
C1303                0
C1304                0
C1305                0
C1306                0
C1307                0
C1308                0
C1309                0
C1310                0
C1311                0
C1312                0
C1313                0
C1314                0
C1315                0
C1316                0
C1317                0
C1318                0
C1319                0
C1320                0
C1321                0
C1322                0
C1323                0
C1324                0
C1325                0
C1326                0
C1327                0
C1328                0
C1329                0
C1330                0
C1331                0
C1332                0
C1333                0
C1334                0
C1335                0
C1336                0
C1337                0
C1338                0
C1339                0
C1340                0
C1341                0
C1342                0
C1343                0
C1344                0
C1345                0
C1346                0
C1347                0
C1348                0
C1349                0
C1350                0
C1351                0
C1352                0
C1353                0
C1354                0
C1355                0
C1356                0
C1357                0
C1358                0
C1359                0
C1360                0
C1361                0
C1362                0
C1363                0
C1364                0
C1365                0
C1366                0
C1367                0
C1368                0
C1369                0
C1370                0
C1371                0
C1372                0
C1373                0
C1374                0
C1375                0
C1376                0
C1377                0
C1378                0
C1379                0
C1380                0
C1381                0
C1382                0
C1383                0
C1384                0
C1385                0
C1386                0
C1387                0
C1388                0
C1389                0
C1390                0
C1391                0
C1392                0
C1393                0
C1394                0
C1395                0
C1396                0
C1397                0
C1398                0
C1399                0
C1400                0
C1401                0
C1402                0
C1403                0
C1404                0
C1405                0
C1406                0
C1407                0
C1408                0
C1409                0
C1410                0
C1411                0
C1412                0
C1413                0
C1414                0
C1415                0
C1416                0
C1417                0
C1418                0
C1419                0
C1420                0
C1421                0
C1422                0
C1423                0
C1424                0
C1425                0
C1426                0
C1427                0
C1428                0
C1429                0
C1430                0
C1431                0
C1432                0
C1433                0
C1434                0
C1435                0
C1436                0
C1437                0
C1438                0
C1439                0
C1440                0
C1441                0
C1442                0
C1443                0
C1444                0
C1445                0
C1446                0
C1447                0
C1448                0
C1449                0
C1450                0
C1451                0
C1452                0
C1453                0
C1454                0
C1455                0
C1456                0
C1457                0
C1458                0
C1459                0
C1460                0
C1461                0
C1462                0
C1463                0
C1464                0
C1465                0
C1466                0
C1467                0
C1468                0
C1469                0
C1470                0
C1471                0
C1472                0
C1473                0
C1474                0
